50 8
261 575
751 398
799 698
68 349
245 290
447 167
54 376
153 903
746 411
126 479
263 979
410 743
316 889
65 374
434 888
280 958
520 584
558 613
205 949
59 306
515 649
249 488
318 479
647 537
787 763
261 831
173 674
319 861
601 622
551 209
359 561
99 680
786 610
763 512
737 517
656 501
832 625
817 595
877 385
261 942
357 397
186 530
902 626
746 553
270 497
714 523
555 740
824 604
156 528
193 319
